* SDPA sparse format data
* File name = Bst_bpv2.dat-s
* mDim =  25, nBlock = 16
* size of bVect = 1 *  25
* size of sparseMatrix =  247 * 5
 25
 16
-14  3  4  4  4  3  3  3  4  4  3  3  4  4  3  3 
   0.0000000000    0.2000000000    0.2500000000    0.0000000000    0.0000000000    0.0000000000   -1.0000000000    0.0000000000    1.0000000000    0.0000000000    0.0000000000    0.0000000000    0.0000000000    0.0000000000    0.0000000000    0.0000000000    0.0000000000    0.0000000000    0.0000000000    0.0000000000    0.0000000000    0.0000000000    0.0000000000    0.0000000000    0.0000000000 
  6   1   1   1    1.0000000000
  7   1   2   2    1.0000000000
  9   1   3   3    1.0000000000
 11   1   4   4    1.0000000000
 15   1   5   5    1.0000000000
 17   1   6   6    1.0000000000
 20   1   7   7    1.0000000000
  5   1   8   8   -1.0000000000
  0   1   8   8   -1.0000000000
  8   1   9   9   -1.0000000000
  0   1   9   9   -1.0000000000
 10   1  10  10   -1.0000000000
  0   1  10  10   -1.0000000000
 12   1  11  11   -1.0000000000
  0   1  11  11   -1.0000000000
 15   1  12  12   -1.0000000000
  0   1  12  12   -1.0000000000
 17   1  13  13   -1.0000000000
  0   1  13  13   -1.0000000000
 20   1  14  14   -1.0000000000
  0   1  14  14   -1.0000000000
  0   2   1   1   -1.0000000000
  3   2   1   2    1.0000000000
  4   2   1   3    1.0000000000
 10   2   2   2    1.0000000000
 11   2   2   3    1.0000000000
 12   2   3   3    1.0000000000
  0   3   1   1   -1.0000000000
  1   3   1   2    1.0000000000
  2   3   1   3    1.0000000000
  3   3   1   4    1.0000000000
  5   3   2   2    1.0000000000
  6   3   2   3    1.0000000000
  7   3   2   4    1.0000000000
  8   3   3   3    1.0000000000
  9   3   3   4    1.0000000000
 10   3   4   4    1.0000000000
  0   4   1   1   -0.7500000000
  1   4   1   1   -1.0000000000
  2   4   1   1   -0.2500000000
  1   4   1   2    0.7500000000
  5   4   1   2   -1.0000000000
  6   4   1   2   -0.2500000000
  2   4   1   3    0.7500000000
  6   4   1   3   -1.0000000000
  8   4   1   3   -0.2500000000
  3   4   1   4    0.7500000000
  7   4   1   4   -1.0000000000
  9   4   1   4   -0.2500000000
  5   4   2   2    0.7500000000
 13   4   2   2   -1.0000000000
 14   4   2   2   -0.2500000000
  6   4   2   3    0.7500000000
 14   4   2   3   -1.0000000000
 16   4   2   3   -0.2500000000
  7   4   2   4    0.7500000000
 15   4   2   4   -1.0000000000
 17   4   2   4   -0.2500000000
  8   4   3   3    0.7500000000
 16   4   3   3   -1.0000000000
 19   4   3   3   -0.2500000000
  9   4   3   4    0.7500000000
 17   4   3   4   -1.0000000000
 20   4   3   4   -0.2500000000
 10   4   4   4    0.7500000000
 18   4   4   4   -1.0000000000
 21   4   4   4   -0.2500000000
  0   5   1   1   -0.0833333333
  1   5   1   1    1.0000000000
  2   5   1   1   -0.3333333333
  1   5   1   2    0.0833333333
  5   5   1   2    1.0000000000
  6   5   1   2   -0.3333333333
  2   5   1   3    0.0833333333
  6   5   1   3    1.0000000000
  8   5   1   3   -0.3333333333
  3   5   1   4    0.0833333333
  7   5   1   4    1.0000000000
  9   5   1   4   -0.3333333333
  5   5   2   2    0.0833333333
 13   5   2   2    1.0000000000
 14   5   2   2   -0.3333333333
  6   5   2   3    0.0833333333
 14   5   2   3    1.0000000000
 16   5   2   3   -0.3333333333
  7   5   2   4    0.0833333333
 15   5   2   4    1.0000000000
 17   5   2   4   -0.3333333333
  8   5   3   3    0.0833333333
 16   5   3   3    1.0000000000
 19   5   3   3   -0.3333333333
  9   5   3   4    0.0833333333
 17   5   3   4    1.0000000000
 20   5   3   4   -0.3333333333
 10   5   4   4    0.0833333333
 18   5   4   4    1.0000000000
 21   5   4   4   -0.3333333333
  0   6   1   1   -0.6000000000
  3   6   1   1   -1.0000000000
  4   6   1   1    0.2500000000
  3   6   1   2    0.6000000000
 10   6   1   2   -1.0000000000
 11   6   1   2    0.2500000000
  4   6   1   3    0.6000000000
 11   6   1   3   -1.0000000000
 12   6   1   3    0.2500000000
 10   6   2   2    0.6000000000
 22   6   2   2   -1.0000000000
 23   6   2   2    0.2500000000
 11   6   2   3    0.6000000000
 23   6   2   3   -1.0000000000
 24   6   2   3    0.2500000000
 12   6   3   3    0.6000000000
 24   6   3   3   -1.0000000000
 25   6   3   3    0.2500000000
  0   7   1   1   -1.0000000000
  3   7   1   1   -0.6250000000
  4   7   1   1   -0.6250000000
  3   7   1   2    1.0000000000
 10   7   1   2   -0.6250000000
 11   7   1   2   -0.6250000000
  4   7   1   3    1.0000000000
 11   7   1   3   -0.6250000000
 12   7   1   3   -0.6250000000
 10   7   2   2    1.0000000000
 22   7   2   2   -0.6250000000
 23   7   2   2   -0.6250000000
 11   7   2   3    1.0000000000
 23   7   2   3   -0.6250000000
 24   7   2   3   -0.6250000000
 12   7   3   3    1.0000000000
 24   7   3   3   -0.6250000000
 25   7   3   3   -0.6250000000
  0   8   1   1   -0.0500000000
  3   8   1   1    1.0000000000
  4   8   1   1   -0.2500000000
  3   8   1   2    0.0500000000
 10   8   1   2    1.0000000000
 11   8   1   2   -0.2500000000
  4   8   1   3    0.0500000000
 11   8   1   3    1.0000000000
 12   8   1   3   -0.2500000000
 10   8   2   2    0.0500000000
 22   8   2   2    1.0000000000
 23   8   2   2   -0.2500000000
 11   8   2   3    0.0500000000
 23   8   2   3    1.0000000000
 24   8   2   3   -0.2500000000
 12   8   3   3    0.0500000000
 24   8   3   3    1.0000000000
 25   8   3   3   -0.2500000000
  1   9   1   1    1.0000000000
  5   9   1   2    1.0000000000
  6   9   1   3    1.0000000000
  7   9   1   4    1.0000000000
 13   9   2   2    1.0000000000
 14   9   2   3    1.0000000000
 15   9   2   4    1.0000000000
 16   9   3   3    1.0000000000
 17   9   3   4    1.0000000000
 18   9   4   4    1.0000000000
  2  10   1   1    1.0000000000
  6  10   1   2    1.0000000000
  8  10   1   3    1.0000000000
  9  10   1   4    1.0000000000
 14  10   2   2    1.0000000000
 16  10   2   3    1.0000000000
 17  10   2   4    1.0000000000
 19  10   3   3    1.0000000000
 20  10   3   4    1.0000000000
 21  10   4   4    1.0000000000
  3  11   1   1    1.0000000000
 10  11   1   2    1.0000000000
 11  11   1   3    1.0000000000
 22  11   2   2    1.0000000000
 23  11   2   3    1.0000000000
 24  11   3   3    1.0000000000
  4  12   1   1    1.0000000000
 11  12   1   2    1.0000000000
 12  12   1   3    1.0000000000
 23  12   2   2    1.0000000000
 24  12   2   3    1.0000000000
 25  12   3   3    1.0000000000
  0  13   1   1   -1.0000000000
  1  13   1   1   -1.0000000000
  1  13   1   2    1.0000000000
  5  13   1   2   -1.0000000000
  2  13   1   3    1.0000000000
  6  13   1   3   -1.0000000000
  3  13   1   4    1.0000000000
  7  13   1   4   -1.0000000000
  5  13   2   2    1.0000000000
 13  13   2   2   -1.0000000000
  6  13   2   3    1.0000000000
 14  13   2   3   -1.0000000000
  7  13   2   4    1.0000000000
 15  13   2   4   -1.0000000000
  8  13   3   3    1.0000000000
 16  13   3   3   -1.0000000000
  9  13   3   4    1.0000000000
 17  13   3   4   -1.0000000000
 10  13   4   4    1.0000000000
 18  13   4   4   -1.0000000000
  0  14   1   1   -1.0000000000
  2  14   1   1   -1.0000000000
  1  14   1   2    1.0000000000
  6  14   1   2   -1.0000000000
  2  14   1   3    1.0000000000
  8  14   1   3   -1.0000000000
  3  14   1   4    1.0000000000
  9  14   1   4   -1.0000000000
  5  14   2   2    1.0000000000
 14  14   2   2   -1.0000000000
  6  14   2   3    1.0000000000
 16  14   2   3   -1.0000000000
  7  14   2   4    1.0000000000
 17  14   2   4   -1.0000000000
  8  14   3   3    1.0000000000
 19  14   3   3   -1.0000000000
  9  14   3   4    1.0000000000
 20  14   3   4   -1.0000000000
 10  14   4   4    1.0000000000
 21  14   4   4   -1.0000000000
  0  15   1   1   -1.0000000000
  3  15   1   1   -1.0000000000
  3  15   1   2    1.0000000000
 10  15   1   2   -1.0000000000
  4  15   1   3    1.0000000000
 11  15   1   3   -1.0000000000
 10  15   2   2    1.0000000000
 22  15   2   2   -1.0000000000
 11  15   2   3    1.0000000000
 23  15   2   3   -1.0000000000
 12  15   3   3    1.0000000000
 24  15   3   3   -1.0000000000
  0  16   1   1   -1.0000000000
  4  16   1   1   -1.0000000000
  3  16   1   2    1.0000000000
 11  16   1   2   -1.0000000000
  4  16   1   3    1.0000000000
 12  16   1   3   -1.0000000000
 10  16   2   2    1.0000000000
 23  16   2   2   -1.0000000000
 11  16   2   3    1.0000000000
 24  16   2   3   -1.0000000000
 12  16   3   3    1.0000000000
 25  16   3   3   -1.0000000000
